52	78	58	24	93	51	89	77	74	99	74	77	87	40	14	99	68	95	77	41
74	16	33	62	61	79	79	18	82	29	50	14	75	69	46	34	97	2	89	19
28	39	70	75	83	59	49	19	43	80	71	3	97	58	65	29	5	87	77	9
58	98	76	54	88	40	77	33	37	4	79	3	71	10	88	34	72	89	34	82
83	63	97	27	6	94	2	20	70	89	57	48	88	15	33	83	63	74	83	92
